c description: Perfect Matching Principle on 
c generator: CNFgen (0.9.0)
c copyright: (C) 2012-2020 Massimo Lauria <massimo.lauria@uniroma1.it>
c url: https://massimolauria.net/cnfgen
c
p cnf 60 246
-1 -2 0
-1 -3 0
-1 -4 0
-1 -5 0
-2 -3 0
-2 -4 0
-2 -5 0
-3 -4 0
-3 -5 0
-4 -5 0
1 2 3 4 5 0
6 0
-7 -8 0
-7 -9 0
-7 -10 0
-7 -11 0
-7 -12 0
-8 -9 0
-8 -10 0
-8 -11 0
-8 -12 0
-9 -10 0
-9 -11 0
-9 -12 0
-10 -11 0
-10 -12 0
-11 -12 0
7 8 9 10 11 12 0
-6 -13 0
-6 -14 0
-6 -15 0
-6 -16 0
-13 -14 0
-13 -15 0
-13 -16 0
-14 -15 0
-14 -16 0
-15 -16 0
6 13 14 15 16 0
-17 -18 0
-17 -19 0
-18 -19 0
17 18 19 0
-20 -21 0
-20 -22 0
-20 -23 0
-20 -24 0
-21 -22 0
-21 -23 0
-21 -24 0
-22 -23 0
-22 -24 0
-23 -24 0
20 21 22 23 24 0
-25 -26 0
-25 -27 0
-26 -27 0
25 26 27 0
-1 -28 0
-1 -29 0
-28 -29 0
1 28 29 0
-13 -20 0
-13 -30 0
-20 -30 0
13 20 30 0
-17 -21 0
-17 -25 0
-17 -31 0
-17 -32 0
-17 -33 0
-21 -25 0
-21 -31 0
-21 -32 0
-21 -33 0
-25 -31 0
-25 -32 0
-25 -33 0
-31 -32 0
-31 -33 0
-32 -33 0
17 21 25 31 32 33 0
-14 -18 0
-14 -30 0
-14 -34 0
-14 -35 0
-14 -36 0
-18 -30 0
-18 -34 0
-18 -35 0
-18 -36 0
-30 -34 0
-30 -35 0
-30 -36 0
-34 -35 0
-34 -36 0
-35 -36 0
14 18 30 34 35 36 0
-7 -22 0
-7 -37 0
-7 -38 0
-22 -37 0
-22 -38 0
-37 -38 0
7 22 37 38 0
-2 -8 0
-2 -39 0
-2 -40 0
-2 -41 0
-8 -39 0
-8 -40 0
-8 -41 0
-39 -40 0
-39 -41 0
-40 -41 0
2 8 39 40 41 0
-3 -9 0
-3 -42 0
-3 -43 0
-9 -42 0
-9 -43 0
-42 -43 0
3 9 42 43 0
-10 -23 0
-10 -28 0
-10 -42 0
-10 -44 0
-10 -45 0
-23 -28 0
-23 -42 0
-23 -44 0
-23 -45 0
-28 -42 0
-28 -44 0
-28 -45 0
-42 -44 0
-42 -45 0
-44 -45 0
10 23 28 42 44 45 0
34 0
-15 -31 0
-15 -46 0
-15 -47 0
-31 -46 0
-31 -47 0
-46 -47 0
15 31 46 47 0
-39 -48 0
-39 -49 0
-39 -50 0
-48 -49 0
-48 -50 0
-49 -50 0
39 48 49 50 0
-26 -40 0
26 40 0
-4 -24 0
-4 -51 0
-4 -52 0
-4 -53 0
-4 -54 0
-24 -51 0
-24 -52 0
-24 -53 0
-24 -54 0
-51 -52 0
-51 -53 0
-51 -54 0
-52 -53 0
-52 -54 0
-53 -54 0
4 24 51 52 53 54 0
-29 -51 0
-29 -55 0
-29 -56 0
-51 -55 0
-51 -56 0
-55 -56 0
29 51 55 56 0
-11 -35 0
-11 -55 0
-35 -55 0
11 35 55 0
-16 -32 0
16 32 0
-44 -46 0
-44 -52 0
-44 -57 0
-44 -58 0
-46 -52 0
-46 -57 0
-46 -58 0
-52 -57 0
-52 -58 0
-57 -58 0
44 46 52 57 58 0
-33 -59 0
33 59 0
-5 -47 0
-5 -57 0
-47 -57 0
5 47 57 0
-43 -45 0
-43 -56 0
-43 -58 0
-43 -60 0
-45 -56 0
-45 -58 0
-45 -60 0
-56 -58 0
-56 -60 0
-58 -60 0
43 45 56 58 60 0
-27 -36 0
-27 -48 0
-27 -53 0
-36 -48 0
-36 -53 0
-48 -53 0
27 36 48 53 0
-37 -41 0
-37 -49 0
-41 -49 0
37 41 49 0
-12 -19 0
-12 -38 0
-12 -50 0
-12 -54 0
-12 -59 0
-12 -60 0
-19 -38 0
-19 -50 0
-19 -54 0
-19 -59 0
-19 -60 0
-38 -50 0
-38 -54 0
-38 -59 0
-38 -60 0
-50 -54 0
-50 -59 0
-50 -60 0
-54 -59 0
-54 -60 0
-59 -60 0
12 19 38 50 54 59 60 0